letting n =  10
letting blocks =  [[1, 4], [1, 5], [1, 7], [1, 8], [1, 9], [2, 2], [2, 5], [2, 7], [2, 8], [2, 9], [2, 10], [3, 3], [3, 4], [3, 6], [3, 8], [4, 7], [4, 9], [5, 8], [5, 10], [6, 4], [7, 3], [7, 6], [7, 7], [7, 9], [7, 10], [8, 4], [8, 6], [8, 7], [8, 8], [9, 5], [9, 8], [9, 9], [10, 2], [10, 3], [10, 4], [10, 7], [10, 9], [10, 10]]
